results/res_prop_muc/res_Cimatti_mathsat_cores/QF_UF/SEQ013_size4.smt.smt2
(set-option :produce-unsat-cores true)
(set-info :status unknown)
(declare-sort U 0)
(declare-fun c_3 () U)
(declare-fun c_2 () U)
(declare-fun c_1 () U)
(declare-fun c_0 () U)
(declare-fun c10 () U)
(declare-fun c9 () U)
(declare-fun c8 () U)
(declare-fun c7 () U)
(declare-fun c6 () U)
(declare-fun c5 () U)
(declare-fun c2 () U)
(declare-fun f3 (U) U)
(declare-fun f4 (U U) U)
(declare-fun f1 (U U) U)
(define-fun .def_0 () Bool (! (not (= c_0 c_1)) :named _c0))
(define-fun .def_1 () Bool (! (= (f1 (f3 c_0) c_0) c2) :named _c1))
(define-fun .def_2 () Bool (! (= (f1 (f3 c_1) c_1) c2) :named _c2))
(define-fun .def_3 () Bool (! (= (f1 (f3 c_2) c_2) c2) :named _c3))
(define-fun .def_4 () Bool (! (= (f1 (f3 c_3) c_3) c2) :named _c4))
(define-fun .def_5 () Bool (! (= (f1 c2 c_0) c_0) :named _c5))
(define-fun .def_6 () Bool (! (= (f1 c2 c_1) c_1) :named _c6))
(define-fun .def_7 () Bool (! (= (f1 c2 c_2) c_2) :named _c7))
(define-fun .def_8 () Bool (! (= (f1 c2 c_3) c_3) :named _c8))
(define-fun .def_9 () Bool (! (= (f1 c_0 c2) c_0) :named _c9))
(define-fun .def_10 () Bool (! (= (f1 c_1 c2) c_1) :named _c10))
(define-fun .def_11 () Bool (! (= (f1 c_2 c2) c_2) :named _c11))
(define-fun .def_12 () Bool (! (= (f1 c_3 c2) c_3) :named _c12))
(define-fun .def_13 () Bool (! (= (f1 (f1 c_0 c_0) c_0) (f1 c_0 (f1 c_0 c_0))) :named _c13))
(define-fun .def_14 () Bool (! (= (f1 (f1 c_0 c_0) c_1) (f1 c_0 (f1 c_0 c_1))) :named _c14))
(define-fun .def_15 () Bool (! (= (f1 (f1 c_0 c_0) c_2) (f1 c_0 (f1 c_0 c_2))) :named _c15))
(define-fun .def_16 () Bool (! (= (f1 (f1 c_0 c_0) c_3) (f1 c_0 (f1 c_0 c_3))) :named _c16))
(define-fun .def_17 () Bool (! (= (f1 (f1 c_0 c_1) c_0) (f1 c_0 (f1 c_1 c_0))) :named _c17))
(define-fun .def_18 () Bool (! (= (f1 (f1 c_0 c_1) c_1) (f1 c_0 (f1 c_1 c_1))) :named _c18))
(define-fun .def_19 () Bool (! (= (f1 (f1 c_0 c_1) c_2) (f1 c_0 (f1 c_1 c_2))) :named _c19))
(define-fun .def_20 () Bool (! (= (f1 (f1 c_0 c_1) c_3) (f1 c_0 (f1 c_1 c_3))) :named _c20))
(define-fun .def_21 () Bool (! (= (f1 (f1 c_0 c_2) c_0) (f1 c_0 (f1 c_2 c_0))) :named _c21))
(define-fun .def_22 () Bool (! (= (f1 (f1 c_0 c_2) c_1) (f1 c_0 (f1 c_2 c_1))) :named _c22))
(define-fun .def_23 () Bool (! (= (f1 (f1 c_0 c_2) c_2) (f1 c_0 (f1 c_2 c_2))) :named _c23))
(define-fun .def_24 () Bool (! (= (f1 (f1 c_0 c_2) c_3) (f1 c_0 (f1 c_2 c_3))) :named _c24))
(define-fun .def_25 () Bool (! (= (f1 (f1 c_0 c_3) c_0) (f1 c_0 (f1 c_3 c_0))) :named _c25))
(define-fun .def_26 () Bool (! (= (f1 (f1 c_0 c_3) c_1) (f1 c_0 (f1 c_3 c_1))) :named _c26))
(define-fun .def_27 () Bool (! (= (f1 (f1 c_0 c_3) c_2) (f1 c_0 (f1 c_3 c_2))) :named _c27))
(define-fun .def_28 () Bool (! (= (f1 (f1 c_0 c_3) c_3) (f1 c_0 (f1 c_3 c_3))) :named _c28))
(define-fun .def_29 () Bool (! (= (f1 (f1 c_1 c_0) c_0) (f1 c_1 (f1 c_0 c_0))) :named _c29))
(define-fun .def_30 () Bool (! (= (f1 (f1 c_1 c_0) c_1) (f1 c_1 (f1 c_0 c_1))) :named _c30))
(define-fun .def_31 () Bool (! (= (f1 (f1 c_1 c_0) c_2) (f1 c_1 (f1 c_0 c_2))) :named _c31))
(define-fun .def_32 () Bool (! (= (f1 (f1 c_1 c_0) c_3) (f1 c_1 (f1 c_0 c_3))) :named _c32))
(define-fun .def_33 () Bool (! (= (f1 (f1 c_1 c_1) c_0) (f1 c_1 (f1 c_1 c_0))) :named _c33))
(define-fun .def_34 () Bool (! (= (f1 (f1 c_1 c_1) c_1) (f1 c_1 (f1 c_1 c_1))) :named _c34))
(define-fun .def_35 () Bool (! (= (f1 (f1 c_1 c_1) c_2) (f1 c_1 (f1 c_1 c_2))) :named _c35))
(define-fun .def_36 () Bool (! (= (f1 (f1 c_1 c_1) c_3) (f1 c_1 (f1 c_1 c_3))) :named _c36))
(define-fun .def_37 () Bool (! (= (f1 (f1 c_1 c_2) c_0) (f1 c_1 (f1 c_2 c_0))) :named _c37))
(define-fun .def_38 () Bool (! (= (f1 (f1 c_1 c_2) c_1) (f1 c_1 (f1 c_2 c_1))) :named _c38))
(define-fun .def_39 () Bool (! (= (f1 (f1 c_1 c_2) c_2) (f1 c_1 (f1 c_2 c_2))) :named _c39))
(define-fun .def_40 () Bool (! (= (f1 (f1 c_1 c_2) c_3) (f1 c_1 (f1 c_2 c_3))) :named _c40))
(define-fun .def_41 () Bool (! (= (f1 (f1 c_1 c_3) c_0) (f1 c_1 (f1 c_3 c_0))) :named _c41))
(define-fun .def_42 () Bool (! (= (f1 (f1 c_1 c_3) c_1) (f1 c_1 (f1 c_3 c_1))) :named _c42))
(define-fun .def_43 () Bool (! (= (f1 (f1 c_1 c_3) c_2) (f1 c_1 (f1 c_3 c_2))) :named _c43))
(define-fun .def_44 () Bool (! (= (f1 (f1 c_1 c_3) c_3) (f1 c_1 (f1 c_3 c_3))) :named _c44))
(define-fun .def_45 () Bool (! (= (f1 (f1 c_2 c_0) c_0) (f1 c_2 (f1 c_0 c_0))) :named _c45))
(define-fun .def_46 () Bool (! (= (f1 (f1 c_2 c_0) c_1) (f1 c_2 (f1 c_0 c_1))) :named _c46))
(define-fun .def_47 () Bool (! (= (f1 (f1 c_2 c_0) c_2) (f1 c_2 (f1 c_0 c_2))) :named _c47))
(define-fun .def_48 () Bool (! (= (f1 (f1 c_2 c_0) c_3) (f1 c_2 (f1 c_0 c_3))) :named _c48))
(define-fun .def_49 () Bool (! (= (f1 (f1 c_2 c_1) c_0) (f1 c_2 (f1 c_1 c_0))) :named _c49))
(define-fun .def_50 () Bool (! (= (f1 (f1 c_2 c_1) c_1) (f1 c_2 (f1 c_1 c_1))) :named _c50))
(define-fun .def_51 () Bool (! (= (f1 (f1 c_2 c_1) c_2) (f1 c_2 (f1 c_1 c_2))) :named _c51))
(define-fun .def_52 () Bool (! (= (f1 (f1 c_2 c_1) c_3) (f1 c_2 (f1 c_1 c_3))) :named _c52))
(define-fun .def_53 () Bool (! (= (f1 (f1 c_2 c_2) c_0) (f1 c_2 (f1 c_2 c_0))) :named _c53))
(define-fun .def_54 () Bool (! (= (f1 (f1 c_2 c_2) c_1) (f1 c_2 (f1 c_2 c_1))) :named _c54))
(define-fun .def_55 () Bool (! (= (f1 (f1 c_2 c_2) c_2) (f1 c_2 (f1 c_2 c_2))) :named _c55))
(define-fun .def_56 () Bool (! (= (f1 (f1 c_2 c_2) c_3) (f1 c_2 (f1 c_2 c_3))) :named _c56))
(define-fun .def_57 () Bool (! (= (f1 (f1 c_2 c_3) c_0) (f1 c_2 (f1 c_3 c_0))) :named _c57))
(define-fun .def_58 () Bool (! (= (f1 (f1 c_2 c_3) c_1) (f1 c_2 (f1 c_3 c_1))) :named _c58))
(define-fun .def_59 () Bool (! (= (f1 (f1 c_2 c_3) c_2) (f1 c_2 (f1 c_3 c_2))) :named _c59))
(define-fun .def_60 () Bool (! (= (f1 (f1 c_2 c_3) c_3) (f1 c_2 (f1 c_3 c_3))) :named _c60))
(define-fun .def_61 () Bool (! (= (f1 (f1 c_3 c_0) c_0) (f1 c_3 (f1 c_0 c_0))) :named _c61))
(define-fun .def_62 () Bool (! (= (f1 (f1 c_3 c_0) c_1) (f1 c_3 (f1 c_0 c_1))) :named _c62))
(define-fun .def_63 () Bool (! (= (f1 (f1 c_3 c_0) c_2) (f1 c_3 (f1 c_0 c_2))) :named _c63))
(define-fun .def_64 () Bool (! (= (f1 (f1 c_3 c_0) c_3) (f1 c_3 (f1 c_0 c_3))) :named _c64))
(define-fun .def_65 () Bool (! (= (f1 (f1 c_3 c_1) c_0) (f1 c_3 (f1 c_1 c_0))) :named _c65))
(define-fun .def_66 () Bool (! (= (f1 (f1 c_3 c_1) c_1) (f1 c_3 (f1 c_1 c_1))) :named _c66))
(define-fun .def_67 () Bool (! (= (f1 (f1 c_3 c_1) c_2) (f1 c_3 (f1 c_1 c_2))) :named _c67))
(define-fun .def_68 () Bool (! (= (f1 (f1 c_3 c_1) c_3) (f1 c_3 (f1 c_1 c_3))) :named _c68))
(define-fun .def_69 () Bool (! (= (f1 (f1 c_3 c_2) c_0) (f1 c_3 (f1 c_2 c_0))) :named _c69))
(define-fun .def_70 () Bool (! (= (f1 (f1 c_3 c_2) c_1) (f1 c_3 (f1 c_2 c_1))) :named _c70))
(define-fun .def_71 () Bool (! (= (f1 (f1 c_3 c_2) c_2) (f1 c_3 (f1 c_2 c_2))) :named _c71))
(define-fun .def_72 () Bool (! (= (f1 (f1 c_3 c_2) c_3) (f1 c_3 (f1 c_2 c_3))) :named _c72))
(define-fun .def_73 () Bool (! (= (f1 (f1 c_3 c_3) c_0) (f1 c_3 (f1 c_3 c_0))) :named _c73))
(define-fun .def_74 () Bool (! (= (f1 (f1 c_3 c_3) c_1) (f1 c_3 (f1 c_3 c_1))) :named _c74))
(define-fun .def_75 () Bool (! (= (f1 (f1 c_3 c_3) c_2) (f1 c_3 (f1 c_3 c_2))) :named _c75))
(define-fun .def_76 () Bool (! (= (f1 (f1 c_3 c_3) c_3) (f1 c_3 (f1 c_3 c_3))) :named _c76))
(define-fun .def_77 () Bool (! (or (= (f4 (f4 c5 c6) c7) (f4 c5 (f4 c6 c7)))
    (= (f1 (f4 c8 c9) c10) (f1 c10 (f4 c8 c9)))) :named _c77))
(define-fun .def_78 () Bool (! (let ((a!1 (f1 c_0 (f1 c_0 (f1 (f3 c_0) (f3 c_0))))))
  (= (f4 c_0 c_0) a!1)) :named _c78))
(define-fun .def_79 () Bool (! (let ((a!1 (f1 c_0 (f1 c_1 (f1 (f3 c_0) (f3 c_1))))))
  (= (f4 c_0 c_1) a!1)) :named _c79))
(define-fun .def_80 () Bool (! (let ((a!1 (f1 c_0 (f1 c_2 (f1 (f3 c_0) (f3 c_2))))))
  (= (f4 c_0 c_2) a!1)) :named _c80))
(define-fun .def_81 () Bool (! (let ((a!1 (f1 c_0 (f1 c_3 (f1 (f3 c_0) (f3 c_3))))))
  (= (f4 c_0 c_3) a!1)) :named _c81))
(define-fun .def_82 () Bool (! (let ((a!1 (f1 c_1 (f1 c_0 (f1 (f3 c_1) (f3 c_0))))))
  (= (f4 c_1 c_0) a!1)) :named _c82))
(define-fun .def_83 () Bool (! (let ((a!1 (f1 c_1 (f1 c_1 (f1 (f3 c_1) (f3 c_1))))))
  (= (f4 c_1 c_1) a!1)) :named _c83))
(define-fun .def_84 () Bool (! (let ((a!1 (f1 c_1 (f1 c_2 (f1 (f3 c_1) (f3 c_2))))))
  (= (f4 c_1 c_2) a!1)) :named _c84))
(define-fun .def_85 () Bool (! (let ((a!1 (f1 c_1 (f1 c_3 (f1 (f3 c_1) (f3 c_3))))))
  (= (f4 c_1 c_3) a!1)) :named _c85))
(define-fun .def_86 () Bool (! (let ((a!1 (f1 c_2 (f1 c_0 (f1 (f3 c_2) (f3 c_0))))))
  (= (f4 c_2 c_0) a!1)) :named _c86))
(define-fun .def_87 () Bool (! (let ((a!1 (f1 c_2 (f1 c_1 (f1 (f3 c_2) (f3 c_1))))))
  (= (f4 c_2 c_1) a!1)) :named _c87))
(define-fun .def_88 () Bool (! (let ((a!1 (f1 c_2 (f1 c_2 (f1 (f3 c_2) (f3 c_2))))))
  (= (f4 c_2 c_2) a!1)) :named _c88))
(define-fun .def_89 () Bool (! (let ((a!1 (f1 c_2 (f1 c_3 (f1 (f3 c_2) (f3 c_3))))))
  (= (f4 c_2 c_3) a!1)) :named _c89))
(define-fun .def_90 () Bool (! (let ((a!1 (f1 c_3 (f1 c_0 (f1 (f3 c_3) (f3 c_0))))))
  (= (f4 c_3 c_0) a!1)) :named _c90))
(define-fun .def_91 () Bool (! (let ((a!1 (f1 c_3 (f1 c_1 (f1 (f3 c_3) (f3 c_1))))))
  (= (f4 c_3 c_1) a!1)) :named _c91))
(define-fun .def_92 () Bool (! (let ((a!1 (f1 c_3 (f1 c_2 (f1 (f3 c_3) (f3 c_2))))))
  (= (f4 c_3 c_2) a!1)) :named _c92))
(define-fun .def_93 () Bool (! (let ((a!1 (f1 c_3 (f1 c_3 (f1 (f3 c_3) (f3 c_3))))))
  (= (f4 c_3 c_3) a!1)) :named _c93))
(define-fun .def_94 () Bool (! (= (f1 c_0 (f3 c_0)) c2) :named _c94))
(define-fun .def_95 () Bool (! (= (f1 c_1 (f3 c_1)) c2) :named _c95))
(define-fun .def_96 () Bool (! (= (f1 c_2 (f3 c_2)) c2) :named _c96))
(define-fun .def_97 () Bool (! (= (f1 c_3 (f3 c_3)) c2) :named _c97))
(define-fun .def_98 () Bool (! (let ((a!1 (not (= (f4 (f4 c5 c6) c7) (f4 c5 (f4 c6 c7)))))
      (a!2 (not (= (f1 (f4 c8 c9) c10) (f1 c10 (f4 c8 c9))))))
  (or a!1 a!2)) :named _c98))
(define-fun .def_99 () Bool (! (or (= (f1 c_0 c_0) c_0)
    (= (f1 c_0 c_0) c_1)
    (= (f1 c_0 c_0) c_2)
    (= (f1 c_0 c_0) c_3)) :named _c99))
(define-fun .def_100 () Bool (! (or (= (f1 c_0 c_1) c_0)
    (= (f1 c_0 c_1) c_1)
    (= (f1 c_0 c_1) c_2)
    (= (f1 c_0 c_1) c_3)) :named _c100))
(define-fun .def_101 () Bool (! (or (= (f1 c_0 c_2) c_0)
    (= (f1 c_0 c_2) c_1)
    (= (f1 c_0 c_2) c_2)
    (= (f1 c_0 c_2) c_3)) :named _c101))
(define-fun .def_102 () Bool (! (or (= (f1 c_0 c_3) c_0)
    (= (f1 c_0 c_3) c_1)
    (= (f1 c_0 c_3) c_2)
    (= (f1 c_0 c_3) c_3)) :named _c102))
(define-fun .def_103 () Bool (! (or (= (f1 c_1 c_0) c_0)
    (= (f1 c_1 c_0) c_1)
    (= (f1 c_1 c_0) c_2)
    (= (f1 c_1 c_0) c_3)) :named _c103))
(define-fun .def_104 () Bool (! (or (= (f1 c_1 c_1) c_0)
    (= (f1 c_1 c_1) c_1)
    (= (f1 c_1 c_1) c_2)
    (= (f1 c_1 c_1) c_3)) :named _c104))
(define-fun .def_105 () Bool (! (or (= (f1 c_1 c_2) c_0)
    (= (f1 c_1 c_2) c_1)
    (= (f1 c_1 c_2) c_2)
    (= (f1 c_1 c_2) c_3)) :named _c105))
(define-fun .def_106 () Bool (! (or (= (f1 c_1 c_3) c_0)
    (= (f1 c_1 c_3) c_1)
    (= (f1 c_1 c_3) c_2)
    (= (f1 c_1 c_3) c_3)) :named _c106))
(define-fun .def_107 () Bool (! (or (= (f1 c_2 c_0) c_0)
    (= (f1 c_2 c_0) c_1)
    (= (f1 c_2 c_0) c_2)
    (= (f1 c_2 c_0) c_3)) :named _c107))
(define-fun .def_108 () Bool (! (or (= (f1 c_2 c_1) c_0)
    (= (f1 c_2 c_1) c_1)
    (= (f1 c_2 c_1) c_2)
    (= (f1 c_2 c_1) c_3)) :named _c108))
(define-fun .def_109 () Bool (! (or (= (f1 c_2 c_2) c_0)
    (= (f1 c_2 c_2) c_1)
    (= (f1 c_2 c_2) c_2)
    (= (f1 c_2 c_2) c_3)) :named _c109))
(define-fun .def_110 () Bool (! (or (= (f1 c_2 c_3) c_0)
    (= (f1 c_2 c_3) c_1)
    (= (f1 c_2 c_3) c_2)
    (= (f1 c_2 c_3) c_3)) :named _c110))
(define-fun .def_111 () Bool (! (or (= (f1 c_3 c_0) c_0)
    (= (f1 c_3 c_0) c_1)
    (= (f1 c_3 c_0) c_2)
    (= (f1 c_3 c_0) c_3)) :named _c111))
(define-fun .def_112 () Bool (! (or (= (f1 c_3 c_1) c_0)
    (= (f1 c_3 c_1) c_1)
    (= (f1 c_3 c_1) c_2)
    (= (f1 c_3 c_1) c_3)) :named _c112))
(define-fun .def_113 () Bool (! (or (= (f1 c_3 c_2) c_0)
    (= (f1 c_3 c_2) c_1)
    (= (f1 c_3 c_2) c_2)
    (= (f1 c_3 c_2) c_3)) :named _c113))
(define-fun .def_114 () Bool (! (or (= (f1 c_3 c_3) c_0)
    (= (f1 c_3 c_3) c_1)
    (= (f1 c_3 c_3) c_2)
    (= (f1 c_3 c_3) c_3)) :named _c114))
(define-fun .def_115 () Bool (! (or (= (f4 c_0 c_0) c_0)
    (= (f4 c_0 c_0) c_1)
    (= (f4 c_0 c_0) c_2)
    (= (f4 c_0 c_0) c_3)) :named _c115))
(define-fun .def_116 () Bool (! (or (= (f4 c_0 c_1) c_0)
    (= (f4 c_0 c_1) c_1)
    (= (f4 c_0 c_1) c_2)
    (= (f4 c_0 c_1) c_3)) :named _c116))
(define-fun .def_117 () Bool (! (or (= (f4 c_0 c_2) c_0)
    (= (f4 c_0 c_2) c_1)
    (= (f4 c_0 c_2) c_2)
    (= (f4 c_0 c_2) c_3)) :named _c117))
(define-fun .def_118 () Bool (! (or (= (f4 c_0 c_3) c_0)
    (= (f4 c_0 c_3) c_1)
    (= (f4 c_0 c_3) c_2)
    (= (f4 c_0 c_3) c_3)) :named _c118))
(define-fun .def_119 () Bool (! (or (= (f4 c_1 c_0) c_0)
    (= (f4 c_1 c_0) c_1)
    (= (f4 c_1 c_0) c_2)
    (= (f4 c_1 c_0) c_3)) :named _c119))
(define-fun .def_120 () Bool (! (or (= (f4 c_1 c_1) c_0)
    (= (f4 c_1 c_1) c_1)
    (= (f4 c_1 c_1) c_2)
    (= (f4 c_1 c_1) c_3)) :named _c120))
(define-fun .def_121 () Bool (! (or (= (f4 c_1 c_2) c_0)
    (= (f4 c_1 c_2) c_1)
    (= (f4 c_1 c_2) c_2)
    (= (f4 c_1 c_2) c_3)) :named _c121))
(define-fun .def_122 () Bool (! (or (= (f4 c_1 c_3) c_0)
    (= (f4 c_1 c_3) c_1)
    (= (f4 c_1 c_3) c_2)
    (= (f4 c_1 c_3) c_3)) :named _c122))
(define-fun .def_123 () Bool (! (or (= (f4 c_2 c_0) c_0)
    (= (f4 c_2 c_0) c_1)
    (= (f4 c_2 c_0) c_2)
    (= (f4 c_2 c_0) c_3)) :named _c123))
(define-fun .def_124 () Bool (! (or (= (f4 c_2 c_1) c_0)
    (= (f4 c_2 c_1) c_1)
    (= (f4 c_2 c_1) c_2)
    (= (f4 c_2 c_1) c_3)) :named _c124))
(define-fun .def_125 () Bool (! (or (= (f4 c_2 c_2) c_0)
    (= (f4 c_2 c_2) c_1)
    (= (f4 c_2 c_2) c_2)
    (= (f4 c_2 c_2) c_3)) :named _c125))
(define-fun .def_126 () Bool (! (or (= (f4 c_2 c_3) c_0)
    (= (f4 c_2 c_3) c_1)
    (= (f4 c_2 c_3) c_2)
    (= (f4 c_2 c_3) c_3)) :named _c126))
(define-fun .def_127 () Bool (! (or (= (f4 c_3 c_0) c_0)
    (= (f4 c_3 c_0) c_1)
    (= (f4 c_3 c_0) c_2)
    (= (f4 c_3 c_0) c_3)) :named _c127))
(define-fun .def_128 () Bool (! (or (= (f4 c_3 c_1) c_0)
    (= (f4 c_3 c_1) c_1)
    (= (f4 c_3 c_1) c_2)
    (= (f4 c_3 c_1) c_3)) :named _c128))
(define-fun .def_129 () Bool (! (or (= (f4 c_3 c_2) c_0)
    (= (f4 c_3 c_2) c_1)
    (= (f4 c_3 c_2) c_2)
    (= (f4 c_3 c_2) c_3)) :named _c129))
(define-fun .def_130 () Bool (! (or (= (f4 c_3 c_3) c_0)
    (= (f4 c_3 c_3) c_1)
    (= (f4 c_3 c_3) c_2)
    (= (f4 c_3 c_3) c_3)) :named _c130))
(define-fun .def_131 () Bool (! (or (= (f3 c_0) c_0) (= (f3 c_0) c_1) (= (f3 c_0) c_2) (= (f3 c_0) c_3)) :named _c131))
(define-fun .def_132 () Bool (! (or (= (f3 c_1) c_0) (= (f3 c_1) c_1) (= (f3 c_1) c_2) (= (f3 c_1) c_3)) :named _c132))
(define-fun .def_133 () Bool (! (or (= (f3 c_2) c_0) (= (f3 c_2) c_1) (= (f3 c_2) c_2) (= (f3 c_2) c_3)) :named _c133))
(define-fun .def_134 () Bool (! (or (= (f3 c_3) c_0) (= (f3 c_3) c_1) (= (f3 c_3) c_2) (= (f3 c_3) c_3)) :named _c134))
(define-fun .def_135 () Bool (! (or (= c2 c_0) (= c2 c_1) (= c2 c_2) (= c2 c_3)) :named _c135))
(define-fun .def_136 () Bool (! (or (= c5 c_0) (= c5 c_1) (= c5 c_2) (= c5 c_3)) :named _c136))
(define-fun .def_137 () Bool (! (or (= c6 c_0) (= c6 c_1) (= c6 c_2) (= c6 c_3)) :named _c137))
(define-fun .def_138 () Bool (! (or (= c7 c_0) (= c7 c_1) (= c7 c_2) (= c7 c_3)) :named _c138))
(define-fun .def_139 () Bool (! (or (= c8 c_0) (= c8 c_1) (= c8 c_2) (= c8 c_3)) :named _c139))
(define-fun .def_140 () Bool (! (or (= c9 c_0) (= c9 c_1) (= c9 c_2) (= c9 c_3)) :named _c140))
(define-fun .def_141 () Bool (! (or (= c10 c_0) (= c10 c_1) (= c10 c_2) (= c10 c_3)) :named _c141))
(define-fun .def_142 () Bool (! (not (= c_0 c_2)) :named _c142))
(define-fun .def_143 () Bool (! (not (= c_0 c_3)) :named _c143))
(define-fun .def_144 () Bool (! (not (= c_1 c_2)) :named _c144))
(define-fun .def_145 () Bool (! (not (= c_1 c_3)) :named _c145))
(define-fun .def_146 () Bool (! (not (= c_2 c_3)) :named _c146))
(assert _c0)
(assert _c1)
(assert _c2)
(assert _c3)
(assert _c4)
(assert _c5)
(assert _c6)
(assert _c7)
(assert _c8)
(assert _c9)
(assert _c10)
(assert _c11)
(assert _c12)
(assert _c13)
(assert _c14)
(assert _c15)
(assert _c16)
(assert _c17)
(assert _c18)
(assert _c19)
(assert _c20)
(assert _c21)
(assert _c22)
(assert _c23)
(assert _c24)
(assert _c25)
(assert _c26)
(assert _c27)
(assert _c28)
(assert _c29)
(assert _c30)
(assert _c31)
(assert _c32)
(assert _c33)
(assert _c34)
(assert _c35)
(assert _c36)
(assert _c37)
(assert _c38)
(assert _c39)
(assert _c40)
(assert _c41)
(assert _c42)
(assert _c43)
(assert _c44)
(assert _c45)
(assert _c46)
(assert _c47)
(assert _c48)
(assert _c49)
(assert _c50)
(assert _c51)
(assert _c52)
(assert _c53)
(assert _c54)
(assert _c55)
(assert _c56)
(assert _c57)
(assert _c58)
(assert _c59)
(assert _c60)
(assert _c61)
(assert _c62)
(assert _c63)
(assert _c64)
(assert _c65)
(assert _c66)
(assert _c67)
(assert _c68)
(assert _c69)
(assert _c70)
(assert _c71)
(assert _c72)
(assert _c73)
(assert _c74)
(assert _c75)
(assert _c76)
(assert _c77)
(assert _c78)
(assert _c79)
(assert _c80)
(assert _c81)
(assert _c82)
(assert _c83)
(assert _c84)
(assert _c85)
(assert _c86)
(assert _c87)
(assert _c88)
(assert _c89)
(assert _c90)
(assert _c91)
(assert _c92)
(assert _c93)
(assert _c94)
(assert _c95)
(assert _c96)
(assert _c97)
(assert _c98)
(assert _c99)
(assert _c100)
(assert _c101)
(assert _c102)
(assert _c103)
(assert _c104)
(assert _c105)
(assert _c106)
(assert _c107)
(assert _c108)
(assert _c109)
(assert _c110)
(assert _c111)
(assert _c112)
(assert _c113)
(assert _c114)
(assert _c115)
(assert _c116)
(assert _c117)
(assert _c118)
(assert _c119)
(assert _c120)
(assert _c121)
(assert _c122)
(assert _c123)
(assert _c124)
(assert _c125)
(assert _c126)
(assert _c127)
(assert _c128)
(assert _c129)
(assert _c130)
(assert _c131)
(assert _c132)
(assert _c133)
(assert _c134)
(assert _c135)
(assert _c136)
(assert _c137)
(assert _c138)
(assert _c139)
(assert _c140)
(assert _c141)
(assert _c142)
(assert _c143)
(assert _c144)
(assert _c145)
(assert _c146)
(check-sat)
(get-unsat-core)
