results/res_prop_muc/res_Cimatti_mathsat_cores/QF_UF/SEQ013_size4.smt.smt2.out

real	0m0.376s
user	0m0.277s
sys	0m0.014s
