results/res_prop_muc/res_Cimatti_mathsat_cores/QF_UF/SEQ013_size4.smt.smt2.res
unsat
( _c0
  _c1
  _c10
  _c100
  _c101
  _c102
  _c104
  _c105
  _c106
  _c11
  _c110
  _c116
  _c117
  _c118
  _c12
  _c13
  _c131
  _c132
  _c133
  _c134
  _c136
  _c137
  _c138
  _c139
  _c14
  _c140
  _c141
  _c142
  _c143
  _c144
  _c145
  _c146
  _c15
  _c16
  _c17
  _c18
  _c19
  _c2
  _c20
  _c21
  _c22
  _c23
  _c24
  _c25
  _c26
  _c27
  _c28
  _c29
  _c3
  _c30
  _c31
  _c32
  _c33
  _c34
  _c35
  _c36
  _c37
  _c38
  _c39
  _c4
  _c40
  _c41
  _c42
  _c43
  _c44
  _c45
  _c46
  _c47
  _c48
  _c49
  _c5
  _c50
  _c51
  _c52
  _c53
  _c54
  _c55
  _c56
  _c57
  _c58
  _c59
  _c6
  _c60
  _c61
  _c62
  _c63
  _c64
  _c65
  _c66
  _c67
  _c68
  _c69
  _c7
  _c70
  _c71
  _c72
  _c73
  _c74
  _c75
  _c76
  _c78
  _c79
  _c8
  _c80
  _c81
  _c82
  _c83
  _c84
  _c85
  _c86
  _c87
  _c88
  _c89
  _c9
  _c90
  _c91
  _c92
  _c93
  _c94
  _c95
  _c96
  _c97
  _c98 )
